NAME : kroE100-C-5-0-a.26440.tour
COMMENT : Length = 26440
COMMENT : Found by LKH-3 [Keld Helsgaun] Tue Jul 30 13:14:12 2024
TYPE : TOUR
DIMENSION : 100
TOUR_SECTION
1
68
38
33
48
5
42
90
30
66
13
75
41
87
67
27
92
82
4
2
11
70
6
55
91
93
39
22
86
43
19
94
18
24
29
100
78
53
34
37
77
85
96
9
31
65
97
57
80
10
60
50
20
15
56
62
88
63
76
12
32
58
64
23
28
36
95
59
98
51
69
21
7
74
83
47
3
46
26
79
16
73
61
71
81
89
14
52
44
72
8
25
54
45
99
17
49
84
40
35
-1
EOF
